5 10 5 4 1000
2.0 0.31 3.0 0.39 3.0 0.43 4.0 0.18 2.0 0.23 1.0 0.38 0.0 0.28 0.0 0.19 1.0 0.17 4.0 0.44
3.0 0.4 4.0 0.49 1.0 0.33 2.0 0.46 4.0 0.42 2.0 0.47 0.0 0.39 1.0 0.42 3.0 0.23 0.0 0.38
1.0 0.21 3.0 0.24 2.0 0.33 2.0 0.17 1.0 0.46 4.0 0.2 3.0 0.33 0.0 0.35 0.0 0.33 4.0 0.16
4.0 0.31 2.0 0.3 3.0 0.38 1.0 0.16 3.0 0.25 0.0 0.28 0.0 0.17 1.0 0.42 2.0 0.17 4.0 0.48
3.0 0.35 0.0 0.22 2.0 0.36 4.0 0.26 2.0 0.46 3.0 0.3 1.0 0.39 4.0 0.42 0.0 0.42 1.0 0.5
